x_1
x_2
x_3
x_4
x_5
x_6
x_7
x_8
x_9
x_10
x_11
x_12
x_13
x_14
x_15
x_16
x_17
x_18
x_19
x_20
x_2 x_1
x_3 x_2
x_4 x_1
x_5 x_2
x_5 x_3
x_5 x_4
x_6 x_1
x_6 x_4
x_7 x_1
x_7 x_2
x_8 x_5
x_9 x_3
x_9 x_5
x_9 x_8
x_10 x_1
x_10 x_2
x_10 x_3
x_10 x_4
x_10 x_5
x_10 x_6
x_10 x_7
x_11 x_1
x_11 x_4
x_11 x_6
x_11 x_7
x_11 x_8
x_11 x_9
x_11 x_10
x_12 x_1
x_12 x_9
x_12 x_11
x_13 x_2
x_13 x_3
x_13 x_4
x_13 x_5
x_13 x_6
x_14 x_2
x_14 x_3
x_14 x_5
x_14 x_7
x_14 x_8
x_14 x_11
x_14 x_13
x_15 x_2
x_15 x_4
x_15 x_9
x_15 x_10
x_15 x_11
x_15 x_14
x_16 x_3
x_16 x_4
x_16 x_6
x_16 x_7
x_16 x_8
x_16 x_9
x_16 x_10
x_16 x_11
x_16 x_12
x_16 x_13
x_16 x_14
x_17 x_2
x_17 x_3
x_17 x_4
x_17 x_5
x_17 x_7
x_17 x_9
x_17 x_12
x_17 x_13
x_17 x_14
x_18 x_3
x_18 x_4
x_18 x_7
x_18 x_9
x_18 x_10
x_18 x_11
x_18 x_12
x_18 x_14
x_18 x_17
x_19 x_4
x_19 x_5
x_19 x_6
x_19 x_7
x_19 x_8
x_19 x_10
x_19 x_11
x_19 x_12
x_19 x_17
x_20 x_1
x_20 x_6
x_20 x_7
x_20 x_9
x_20 x_11
x_20 x_12
x_20 x_18
x_20 x_19
